set VV := 0 1 2 3 4 5 6 7 8 9 10 11 12 13 ;
set VS := 0 1 2 3 4 5 6 7 8 9 10 11 12 13 14 15 16 17 18 19 20 21 22 23 24 25 26 27 28 29 30 31 32 ;
param cv := 
0 16
1 20
2 20
3 22
4 20
5 16
6 15
7 21
8 12
9 25
10 20
11 17
12 13
13 11
;
param cs := 
0 29
1 21
2 22
3 20
4 32
5 26
6 22
7 30
8 32
9 29
10 40
11 22
12 35
13 22
14 21
15 30
16 22
17 20
18 22
19 37
20 29
21 29
22 22
23 31
24 39
25 30
26 34
27 25
28 20
29 26
30 30
31 33
32 21
;
param bv:	 0 1 2 3 4 5 6 7 8 9 10 11 12 13 := 
		0 0 0 0 0 0 0 0 0 0 0 21 0 12 17 
		1 0 0 0 0 0 0 0 0 0 0 19 14 19 0 
		2 0 0 0 0 21 0 0 0 0 25 0 0 0 0 
		3 0 0 0 0 0 0 0 10 0 23 0 0 0 0 
		4 0 0 0 0 0 0 0 0 0 0 0 0 0 0 
		5 0 0 0 0 0 0 0 0 0 0 0 0 0 23 
		6 0 0 0 0 0 0 0 23 12 0 0 0 0 0 
		7 0 0 0 0 0 0 0 0 0 0 0 0 0 0 
		8 0 0 0 0 0 0 0 0 0 0 0 0 19 0 
		9 0 0 0 0 0 0 0 0 0 0 0 0 0 0 
		10 0 0 0 0 0 0 0 0 0 0 0 0 0 13 
		11 0 0 0 0 0 0 0 0 0 0 0 0 0 0 
		12 0 0 0 0 0 0 0 0 0 0 0 0 0 0 
		13 0 0 0 0 0 0 0 0 0 0 0 0 0 0 
;
param bs:	 0 1 2 3 4 5 6 7 8 9 10 11 12 13 14 15 16 17 18 19 20 21 22 23 24 25 26 27 28 29 30 31 32 := 
		0 0 29 0 0 0 0 0 0 0 20 0 0 0 0 0 33 0 0 0 0 0 0 0 0 0 0 38 0 0 0 0 0 0 
		1 29 0 0 0 0 0 0 0 0 0 0 0 0 0 0 0 24 0 31 30 0 0 0 0 0 0 0 0 0 0 0 0 0 
		2 0 0 0 30 0 0 23 20 0 0 38 0 0 32 0 0 35 0 0 0 31 0 21 0 0 0 0 0 0 0 27 0 0 
		3 0 0 30 0 24 0 0 29 0 0 0 0 0 0 0 0 28 22 0 24 0 0 0 0 0 0 0 0 0 0 30 0 0 
		4 0 0 0 24 0 0 35 29 0 0 0 0 0 0 0 0 0 0 0 0 0 0 25 0 0 0 0 0 0 0 0 0 0 
		5 0 0 0 0 0 0 0 0 0 0 0 0 40 0 26 0 0 0 0 0 0 0 0 37 0 20 0 0 0 0 0 31 0 
		6 0 0 23 0 35 0 0 0 0 0 0 0 0 0 0 0 0 0 0 0 0 0 0 0 0 0 0 0 0 0 0 0 0 
		7 0 0 20 29 29 0 0 0 0 0 0 0 33 0 0 0 0 0 0 0 0 0 33 0 0 0 30 28 0 0 0 0 0 
		8 0 0 0 0 0 0 0 0 0 0 0 0 0 0 0 0 0 0 0 0 0 0 0 0 0 0 0 0 0 0 0 25 0 
		9 20 0 0 0 0 0 0 0 0 0 0 24 0 0 35 23 0 0 0 0 0 0 0 34 0 0 0 0 0 31 0 0 0 
		10 0 0 38 0 0 0 0 0 0 0 0 0 0 0 0 0 24 0 0 0 0 0 0 0 0 0 0 0 0 0 0 0 0 
		11 0 0 0 0 0 0 0 0 0 24 0 0 39 38 0 0 0 0 0 0 0 36 25 0 23 0 0 0 21 0 0 26 0 
		12 0 0 0 0 0 40 0 33 0 0 0 39 0 0 0 0 0 0 0 0 0 0 0 0 0 0 0 0 0 0 0 0 0 
		13 0 0 32 0 0 0 0 0 0 0 0 38 0 0 0 0 0 0 0 0 20 0 0 0 0 0 0 0 0 0 0 0 0 
		14 0 0 0 0 0 26 0 0 0 35 0 0 0 0 0 0 0 0 0 0 0 0 0 37 0 0 0 0 0 0 0 0 0 
		15 33 0 0 0 0 0 0 0 0 23 0 0 0 0 0 0 0 0 0 0 0 0 0 35 0 0 26 0 0 0 0 0 0 
		16 0 24 35 28 0 0 0 0 0 0 24 0 0 0 0 0 0 0 0 0 28 0 0 0 0 0 0 0 0 0 38 0 0 
		17 0 0 0 22 0 0 0 0 0 0 0 0 0 0 0 0 0 0 0 37 0 0 0 0 0 0 0 0 26 0 0 0 0 
		18 0 31 0 0 0 0 0 0 0 0 0 0 0 0 0 0 0 0 0 0 0 0 32 0 22 0 36 0 36 0 0 0 30 
		19 0 30 0 24 0 0 0 0 0 0 0 0 0 0 0 0 0 37 0 0 0 0 0 0 0 0 0 0 0 0 0 0 0 
		20 0 0 31 0 0 0 0 0 0 0 0 0 0 20 0 0 28 0 0 0 0 0 0 0 0 0 0 0 0 0 0 0 0 
		21 0 0 0 0 0 0 0 0 0 0 0 36 0 0 0 0 0 0 0 0 0 0 0 0 0 0 0 0 0 0 0 0 0 
		22 0 0 21 0 25 0 0 33 0 0 0 25 0 0 0 0 0 0 32 0 0 0 0 25 0 0 0 0 0 0 0 0 0 
		23 0 0 0 0 0 37 0 0 0 34 0 0 0 0 37 35 0 0 0 0 0 0 25 0 0 0 0 26 0 0 0 0 0 
		24 0 0 0 0 0 0 0 0 0 0 0 23 0 0 0 0 0 0 22 0 0 0 0 0 0 0 37 24 0 0 0 0 0 
		25 0 0 0 0 0 20 0 0 0 0 0 0 0 0 0 0 0 0 0 0 0 0 0 0 0 0 0 0 0 0 0 38 0 
		26 38 0 0 0 0 0 0 30 0 0 0 0 0 0 0 26 0 0 36 0 0 0 0 0 37 0 0 0 0 0 0 26 0 
		27 0 0 0 0 0 0 0 28 0 0 0 0 0 0 0 0 0 0 0 0 0 0 0 26 24 0 0 0 0 0 0 0 0 
		28 0 0 0 0 0 0 0 0 0 0 0 21 0 0 0 0 0 26 36 0 0 0 0 0 0 0 0 0 0 0 0 0 0 
		29 0 0 0 0 0 0 0 0 0 31 0 0 0 0 0 0 0 0 0 0 0 0 0 0 0 0 0 0 0 0 0 0 36 
		30 0 0 27 30 0 0 0 0 0 0 0 0 0 0 0 0 38 0 0 0 0 0 0 0 0 0 0 0 0 0 0 0 0 
		31 0 0 0 0 0 31 0 0 25 0 0 26 0 0 0 0 0 0 0 0 0 0 0 0 0 38 26 0 0 0 0 0 0 
		32 0 0 0 0 0 0 0 0 0 0 0 0 0 0 0 0 0 0 30 0 0 0 0 0 0 0 0 0 0 36 0 0 0 
;
